coords = array2d(1..31, 1..2, [147, 27, 670, 8, 162, 891, 339, 201, 919, 767,
    307, 884, 642, 621, 890, 934, 259, 479, 781, 251, 647, 614, 884,
    173, 567, 773, 175, 381, 165, 802, 930, 7, 320, 882, 42, 247, 571,
    447, 327, 755, 486, 582, 162, 919, 633, 562, 962, 161, 248, 21,
    505, 797, 952, 322, 679, 738, 79, 47, 708, 628, 373, 415]);

n = 31;

